(declare-const _tmp__init Int)
(declare-const x_init Int)
(declare-const y_init Int)
(declare-const m_init Int)
(declare-const c_0 Int)
(declare-const c_1 Int)
(declare-const c_2 Int)
(declare-const c_3 Int)
(declare-const c_4 Int)
(declare-const c_5 Int)
(declare-const c_6 Int)
(declare-const c_7 Int)
(declare-const c_8 Int)
(declare-const c_9 Int)
(declare-const c_10 Int)
(declare-const c_11 Int)
(declare-const c_12 Int)
(declare-const c_13 Int)
(declare-const c_14 Int)
(declare-const c_15 Int)
(declare-const c_16 Int)
(declare-const c_17 Int)
(declare-const c_18 Int)
(declare-const c_19 Int)
(declare-const c_20 Int)
(declare-const c_21 Int)
(declare-const c_22 Int)
(declare-const c_23 Int)
(declare-const c_24 Int)
(declare-const c_25 Int)
(declare-const c_26 Int)
(declare-const c_27 Int)
(declare-const c_28 Int)
(declare-const c_29 Int)
(declare-const c_30 Int)
(declare-const c_31 Int)
(declare-const c_32 Int)
(declare-const c_33 Int)
(declare-const c_34 Int)
(declare-const c_35 Int)
(declare-const c_36 Int)
(declare-const c_37 Int)
(declare-const c_38 Int)
(declare-const c_39 Int)
(declare-const c_40 Int)
(declare-const c_41 Int)
(declare-const c_42 Int)
(declare-const c_43 Int)
(declare-const c_44 Int)
(declare-const c_45 Int)
(declare-const c_46 Int)
(declare-const c_47 Int)
(declare-const c_48 Int)
(assert (< c_4 0))
(assert (and (>= (+ (* (- 1) _tmp__init ) (* 1 c_5 ) ) 0) (>= (+ (* 1 _tmp__init ) (* (- 1) c_5 ) ) 0) (>= (+ (* 1 c_6 ) (* (- 1) x_init ) ) 0) (>= (+ (* (- 1) c_6 ) (* 1 x_init ) ) 0) (>= (+ (* 1 c_7 ) (* (- 1) y_init ) ) 0) (>= (+ (* (- 1) c_7 ) (* 1 y_init ) ) 0) (>= (+ (* 1 c_8 ) (* (- 1) m_init ) ) 0) (>= (+ (* (- 1) c_8 ) (* 1 m_init ) ) 0) ))
(assert (forall ((_tmp_ Real) (x Real) (y Real) (m Real) (_r_0 Real) ) (=> (and (>= (+ (* (- 1) 1) (* (- 1) _tmp_ c_30 ) (* (- 1) c_29 ) (* (- 1) c_31 m ) (* (- 1) c_32 m ) ) 0) (>= (+ (* (- 1) _tmp_ ) (* 1 c_5 ) ) 0) (>= (+ (* 1 _tmp_ ) (* (- 1) c_5 ) ) 0) (>= (+ (* 1 c_6 ) (* (- 1) x ) ) 0) (>= (+ (* (- 1) c_6 ) (* 1 x ) ) 0) (>= (+ (* 1 c_7 ) (* (- 1) y ) ) 0) (>= (+ (* (- 1) c_7 ) (* 1 y ) ) 0) (>= (+ (* 1 c_8 ) (* (- 1) m ) ) 0) (>= (+ (* (- 1) c_8 ) (* 1 m ) ) 0) ) (>= (+ (* 1 _tmp_ c_40 ) (* 1 c_39 ) (* 1 c_41 m ) (* 1 c_42 m ) ) 0) )))
(assert (forall ((_tmp_ Real) (x Real) (y Real) (m Real) (_r_0 Real) ) (=> (and (>= (+ (* (- 1) 1) (* (- 1) _tmp_ c_30 ) (* (- 1) c_29 ) (* (- 1) c_31 m ) (* (- 1) c_32 m ) ) 0) (>= (+ (* (- 1) _tmp_ ) (* 1 c_5 ) ) 0) (>= (+ (* 1 _tmp_ ) (* (- 1) c_5 ) ) 0) (>= (+ (* 1 c_6 ) (* (- 1) x ) ) 0) (>= (+ (* (- 1) c_6 ) (* 1 x ) ) 0) (>= (+ (* 1 c_7 ) (* (- 1) y ) ) 0) (>= (+ (* (- 1) c_7 ) (* 1 y ) ) 0) (>= (+ (* 1 c_8 ) (* (- 1) m ) ) 0) (>= (+ (* (- 1) c_8 ) (* 1 m ) ) 0) ) (>= (+ (* 1 _tmp_ c_45 ) (* 1 c_44 ) (* 1 c_46 m ) (* 1 c_47 m ) ) 0) )))
(assert (forall ((_tmp_ Real) (x Real) (y Real) (m Real) (_r_0 Real) ) (=> (and (>= (+ (* (- 1) 1) (* (- 1) _tmp_ c_35 ) (* (- 1) c_34 ) (* (- 1) c_36 m ) (* (- 1) c_37 m ) ) 0) (>= (+ (* (- 1) _tmp_ ) (* 1 c_5 ) ) 0) (>= (+ (* 1 _tmp_ ) (* (- 1) c_5 ) ) 0) (>= (+ (* 1 c_6 ) (* (- 1) x ) ) 0) (>= (+ (* (- 1) c_6 ) (* 1 x ) ) 0) (>= (+ (* 1 c_7 ) (* (- 1) y ) ) 0) (>= (+ (* (- 1) c_7 ) (* 1 y ) ) 0) (>= (+ (* 1 c_8 ) (* (- 1) m ) ) 0) (>= (+ (* (- 1) c_8 ) (* 1 m ) ) 0) ) (>= (+ (* 1 _tmp_ c_40 ) (* 1 c_39 ) (* 1 c_41 m ) (* 1 c_42 m ) ) 0) )))
(assert (forall ((_tmp_ Real) (x Real) (y Real) (m Real) (_r_0 Real) ) (=> (and (>= (+ (* (- 1) 1) (* (- 1) _tmp_ c_35 ) (* (- 1) c_34 ) (* (- 1) c_36 m ) (* (- 1) c_37 m ) ) 0) (>= (+ (* (- 1) _tmp_ ) (* 1 c_5 ) ) 0) (>= (+ (* 1 _tmp_ ) (* (- 1) c_5 ) ) 0) (>= (+ (* 1 c_6 ) (* (- 1) x ) ) 0) (>= (+ (* (- 1) c_6 ) (* 1 x ) ) 0) (>= (+ (* 1 c_7 ) (* (- 1) y ) ) 0) (>= (+ (* (- 1) c_7 ) (* 1 y ) ) 0) (>= (+ (* 1 c_8 ) (* (- 1) m ) ) 0) (>= (+ (* (- 1) c_8 ) (* 1 m ) ) 0) ) (>= (+ (* 1 _tmp_ c_45 ) (* 1 c_44 ) (* 1 c_46 m ) (* 1 c_47 m ) ) 0) )))
(assert (forall ((_tmp_ Real) (x Real) (y Real) (m Real) (_r_0 Real) ) (=> (and (>= (+ (* (- 1) 1) (* (- 1) _tmp_ c_10 ) (* (- 1) c_11 m ) (* (- 1) c_12 x ) (* (- 1) c_13 ) (* (- 1) c_13 y ) (* (- 1) c_9 ) ) 0) (>= (+ (* 1 m ) (* (- 1) y ) ) 0) (>= (+ (* 1 _tmp_ c_10 ) (* 1 c_11 m ) (* 1 c_12 x ) (* 1 c_13 y ) (* 1 c_9 ) ) 0) (>= (+ (* 1 _tmp_ c_15 ) (* 1 c_14 ) (* 1 c_16 m ) (* 1 c_17 x ) (* 1 c_18 y ) ) 0) ) (>= (+ (* 1 _tmp_ c_20 ) (* 1 c_19 ) (* 1 c_21 m ) (* 1 c_22 x ) (* 1 c_23 ) (* 1 c_23 y ) ) 0) )))
(assert (forall ((_tmp_ Real) (x Real) (y Real) (m Real) (_r_0 Real) ) (=> (and (>= (+ (* (- 1) 1) (* (- 1) _tmp_ c_10 ) (* (- 1) c_11 m ) (* (- 1) c_12 x ) (* (- 1) c_13 ) (* (- 1) c_13 y ) (* (- 1) c_9 ) ) 0) (>= (+ (* 1 m ) (* (- 1) y ) ) 0) (>= (+ (* 1 _tmp_ c_10 ) (* 1 c_11 m ) (* 1 c_12 x ) (* 1 c_13 y ) (* 1 c_9 ) ) 0) (>= (+ (* 1 _tmp_ c_15 ) (* 1 c_14 ) (* 1 c_16 m ) (* 1 c_17 x ) (* 1 c_18 y ) ) 0) ) (>= (+ (* 1 _tmp_ c_25 ) (* 1 c_24 ) (* 1 c_26 m ) (* 1 c_27 x ) (* 1 c_28 ) (* 1 c_28 y ) ) 0) )))
(assert (forall ((_tmp_ Real) (x Real) (y Real) (m Real) (_r_0 Real) ) (=> (and (>= (+ (* (- 1) 1) (* (- 1) _tmp_ c_15 ) (* (- 1) c_14 ) (* (- 1) c_16 m ) (* (- 1) c_17 x ) (* (- 1) c_18 ) (* (- 1) c_18 y ) ) 0) (>= (+ (* 1 m ) (* (- 1) y ) ) 0) (>= (+ (* 1 _tmp_ c_10 ) (* 1 c_11 m ) (* 1 c_12 x ) (* 1 c_13 y ) (* 1 c_9 ) ) 0) (>= (+ (* 1 _tmp_ c_15 ) (* 1 c_14 ) (* 1 c_16 m ) (* 1 c_17 x ) (* 1 c_18 y ) ) 0) ) (>= (+ (* 1 _tmp_ c_20 ) (* 1 c_19 ) (* 1 c_21 m ) (* 1 c_22 x ) (* 1 c_23 ) (* 1 c_23 y ) ) 0) )))
(assert (forall ((_tmp_ Real) (x Real) (y Real) (m Real) (_r_0 Real) ) (=> (and (>= (+ (* (- 1) 1) (* (- 1) _tmp_ c_15 ) (* (- 1) c_14 ) (* (- 1) c_16 m ) (* (- 1) c_17 x ) (* (- 1) c_18 ) (* (- 1) c_18 y ) ) 0) (>= (+ (* 1 m ) (* (- 1) y ) ) 0) (>= (+ (* 1 _tmp_ c_10 ) (* 1 c_11 m ) (* 1 c_12 x ) (* 1 c_13 y ) (* 1 c_9 ) ) 0) (>= (+ (* 1 _tmp_ c_15 ) (* 1 c_14 ) (* 1 c_16 m ) (* 1 c_17 x ) (* 1 c_18 y ) ) 0) ) (>= (+ (* 1 _tmp_ c_25 ) (* 1 c_24 ) (* 1 c_26 m ) (* 1 c_27 x ) (* 1 c_28 ) (* 1 c_28 y ) ) 0) )))
(assert (forall ((_tmp_ Real) (x Real) (y Real) (m Real) (_r_0 Real) ) (=> (and (>= (+ (* (- 1) 1) (* (- 1) _tmp_ c_10 ) (* (- 1) c_11 m ) (* (- 1) c_12 x ) (* (- 1) c_13 ) (* (- 1) c_13 y ) (* (- 1) c_9 ) ) 0) (>= (+ (* 1 m ) (* (- 1) y ) ) 0) (>= (+ (* 1 _tmp_ c_20 ) (* 1 c_19 ) (* 1 c_21 m ) (* 1 c_22 x ) (* 1 c_23 y ) ) 0) (>= (+ (* 1 _tmp_ c_25 ) (* 1 c_24 ) (* 1 c_26 m ) (* 1 c_27 x ) (* 1 c_28 y ) ) 0) ) (>= (+ (* 1 _tmp_ c_20 ) (* 1 c_19 ) (* 1 c_21 m ) (* 1 c_22 x ) (* 1 c_23 ) (* 1 c_23 y ) ) 0) )))
(assert (forall ((_tmp_ Real) (x Real) (y Real) (m Real) (_r_0 Real) ) (=> (and (>= (+ (* (- 1) 1) (* (- 1) _tmp_ c_10 ) (* (- 1) c_11 m ) (* (- 1) c_12 x ) (* (- 1) c_13 ) (* (- 1) c_13 y ) (* (- 1) c_9 ) ) 0) (>= (+ (* 1 m ) (* (- 1) y ) ) 0) (>= (+ (* 1 _tmp_ c_20 ) (* 1 c_19 ) (* 1 c_21 m ) (* 1 c_22 x ) (* 1 c_23 y ) ) 0) (>= (+ (* 1 _tmp_ c_25 ) (* 1 c_24 ) (* 1 c_26 m ) (* 1 c_27 x ) (* 1 c_28 y ) ) 0) ) (>= (+ (* 1 _tmp_ c_25 ) (* 1 c_24 ) (* 1 c_26 m ) (* 1 c_27 x ) (* 1 c_28 ) (* 1 c_28 y ) ) 0) )))
(assert (forall ((_tmp_ Real) (x Real) (y Real) (m Real) (_r_0 Real) ) (=> (and (>= (+ (* (- 1) 1) (* (- 1) _tmp_ c_15 ) (* (- 1) c_14 ) (* (- 1) c_16 m ) (* (- 1) c_17 x ) (* (- 1) c_18 ) (* (- 1) c_18 y ) ) 0) (>= (+ (* 1 m ) (* (- 1) y ) ) 0) (>= (+ (* 1 _tmp_ c_20 ) (* 1 c_19 ) (* 1 c_21 m ) (* 1 c_22 x ) (* 1 c_23 y ) ) 0) (>= (+ (* 1 _tmp_ c_25 ) (* 1 c_24 ) (* 1 c_26 m ) (* 1 c_27 x ) (* 1 c_28 y ) ) 0) ) (>= (+ (* 1 _tmp_ c_20 ) (* 1 c_19 ) (* 1 c_21 m ) (* 1 c_22 x ) (* 1 c_23 ) (* 1 c_23 y ) ) 0) )))
(assert (forall ((_tmp_ Real) (x Real) (y Real) (m Real) (_r_0 Real) ) (=> (and (>= (+ (* (- 1) 1) (* (- 1) _tmp_ c_15 ) (* (- 1) c_14 ) (* (- 1) c_16 m ) (* (- 1) c_17 x ) (* (- 1) c_18 ) (* (- 1) c_18 y ) ) 0) (>= (+ (* 1 m ) (* (- 1) y ) ) 0) (>= (+ (* 1 _tmp_ c_20 ) (* 1 c_19 ) (* 1 c_21 m ) (* 1 c_22 x ) (* 1 c_23 y ) ) 0) (>= (+ (* 1 _tmp_ c_25 ) (* 1 c_24 ) (* 1 c_26 m ) (* 1 c_27 x ) (* 1 c_28 y ) ) 0) ) (>= (+ (* 1 _tmp_ c_25 ) (* 1 c_24 ) (* 1 c_26 m ) (* 1 c_27 x ) (* 1 c_28 ) (* 1 c_28 y ) ) 0) )))
(assert (forall ((_tmp_ Real) (x Real) (y Real) (m Real) (_r_0 Real) ) (=> (and (>= (+ (* (- 1) 1) (* (- 1) _tmp_ c_30 ) (* (- 1) c_29 ) (* (- 1) c_31 m ) (* 1 c_32 ) (* (- 1) c_32 x ) (* 1 c_33 ) (* (- 1) c_33 y ) ) 0) (>= (+ (* (- 1) 1) (* (- 1) m ) (* 1 y ) ) 0) (>= (+ (* 1 _tmp_ c_10 ) (* 1 c_11 m ) (* 1 c_12 x ) (* 1 c_13 y ) (* 1 c_9 ) ) 0) (>= (+ (* 1 _tmp_ c_15 ) (* 1 c_14 ) (* 1 c_16 m ) (* 1 c_17 x ) (* 1 c_18 y ) ) 0) ) (>= (+ (* 1 _tmp_ c_40 ) (* 1 c_39 ) (* 1 c_41 m ) (* (- 1) c_42 ) (* 1 c_42 x ) (* (- 1) c_43 ) (* 1 c_43 y ) ) 0) )))
(assert (forall ((_tmp_ Real) (x Real) (y Real) (m Real) (_r_0 Real) ) (=> (and (>= (+ (* (- 1) 1) (* (- 1) _tmp_ c_30 ) (* (- 1) c_29 ) (* (- 1) c_31 m ) (* 1 c_32 ) (* (- 1) c_32 x ) (* 1 c_33 ) (* (- 1) c_33 y ) ) 0) (>= (+ (* (- 1) 1) (* (- 1) m ) (* 1 y ) ) 0) (>= (+ (* 1 _tmp_ c_10 ) (* 1 c_11 m ) (* 1 c_12 x ) (* 1 c_13 y ) (* 1 c_9 ) ) 0) (>= (+ (* 1 _tmp_ c_15 ) (* 1 c_14 ) (* 1 c_16 m ) (* 1 c_17 x ) (* 1 c_18 y ) ) 0) ) (>= (+ (* 1 _tmp_ c_45 ) (* 1 c_44 ) (* 1 c_46 m ) (* (- 1) c_47 ) (* 1 c_47 x ) (* (- 1) c_48 ) (* 1 c_48 y ) ) 0) )))
(assert (forall ((_tmp_ Real) (x Real) (y Real) (m Real) (_r_0 Real) ) (=> (and (>= (+ (* (- 1) 1) (* (- 1) _tmp_ c_35 ) (* (- 1) c_34 ) (* (- 1) c_36 m ) (* 1 c_37 ) (* (- 1) c_37 x ) (* 1 c_38 ) (* (- 1) c_38 y ) ) 0) (>= (+ (* (- 1) 1) (* (- 1) m ) (* 1 y ) ) 0) (>= (+ (* 1 _tmp_ c_10 ) (* 1 c_11 m ) (* 1 c_12 x ) (* 1 c_13 y ) (* 1 c_9 ) ) 0) (>= (+ (* 1 _tmp_ c_15 ) (* 1 c_14 ) (* 1 c_16 m ) (* 1 c_17 x ) (* 1 c_18 y ) ) 0) ) (>= (+ (* 1 _tmp_ c_40 ) (* 1 c_39 ) (* 1 c_41 m ) (* (- 1) c_42 ) (* 1 c_42 x ) (* (- 1) c_43 ) (* 1 c_43 y ) ) 0) )))
(assert (forall ((_tmp_ Real) (x Real) (y Real) (m Real) (_r_0 Real) ) (=> (and (>= (+ (* (- 1) 1) (* (- 1) _tmp_ c_35 ) (* (- 1) c_34 ) (* (- 1) c_36 m ) (* 1 c_37 ) (* (- 1) c_37 x ) (* 1 c_38 ) (* (- 1) c_38 y ) ) 0) (>= (+ (* (- 1) 1) (* (- 1) m ) (* 1 y ) ) 0) (>= (+ (* 1 _tmp_ c_10 ) (* 1 c_11 m ) (* 1 c_12 x ) (* 1 c_13 y ) (* 1 c_9 ) ) 0) (>= (+ (* 1 _tmp_ c_15 ) (* 1 c_14 ) (* 1 c_16 m ) (* 1 c_17 x ) (* 1 c_18 y ) ) 0) ) (>= (+ (* 1 _tmp_ c_45 ) (* 1 c_44 ) (* 1 c_46 m ) (* (- 1) c_47 ) (* 1 c_47 x ) (* (- 1) c_48 ) (* 1 c_48 y ) ) 0) )))
(assert (forall ((_tmp_ Real) (x Real) (y Real) (m Real) (_r_0 Real) ) (=> (and (>= (+ (* (- 1) 1) (* (- 1) _tmp_ c_30 ) (* (- 1) c_29 ) (* (- 1) c_31 m ) (* 1 c_32 ) (* (- 1) c_32 x ) (* 1 c_33 ) (* (- 1) c_33 y ) ) 0) (>= (+ (* (- 1) 1) (* (- 1) m ) (* 1 y ) ) 0) (>= (+ (* 1 _tmp_ c_20 ) (* 1 c_19 ) (* 1 c_21 m ) (* 1 c_22 x ) (* 1 c_23 y ) ) 0) (>= (+ (* 1 _tmp_ c_25 ) (* 1 c_24 ) (* 1 c_26 m ) (* 1 c_27 x ) (* 1 c_28 y ) ) 0) ) (>= (+ (* 1 _tmp_ c_40 ) (* 1 c_39 ) (* 1 c_41 m ) (* (- 1) c_42 ) (* 1 c_42 x ) (* (- 1) c_43 ) (* 1 c_43 y ) ) 0) )))
(assert (forall ((_tmp_ Real) (x Real) (y Real) (m Real) (_r_0 Real) ) (=> (and (>= (+ (* (- 1) 1) (* (- 1) _tmp_ c_30 ) (* (- 1) c_29 ) (* (- 1) c_31 m ) (* 1 c_32 ) (* (- 1) c_32 x ) (* 1 c_33 ) (* (- 1) c_33 y ) ) 0) (>= (+ (* (- 1) 1) (* (- 1) m ) (* 1 y ) ) 0) (>= (+ (* 1 _tmp_ c_20 ) (* 1 c_19 ) (* 1 c_21 m ) (* 1 c_22 x ) (* 1 c_23 y ) ) 0) (>= (+ (* 1 _tmp_ c_25 ) (* 1 c_24 ) (* 1 c_26 m ) (* 1 c_27 x ) (* 1 c_28 y ) ) 0) ) (>= (+ (* 1 _tmp_ c_45 ) (* 1 c_44 ) (* 1 c_46 m ) (* (- 1) c_47 ) (* 1 c_47 x ) (* (- 1) c_48 ) (* 1 c_48 y ) ) 0) )))
(assert (forall ((_tmp_ Real) (x Real) (y Real) (m Real) (_r_0 Real) ) (=> (and (>= (+ (* (- 1) 1) (* (- 1) _tmp_ c_35 ) (* (- 1) c_34 ) (* (- 1) c_36 m ) (* 1 c_37 ) (* (- 1) c_37 x ) (* 1 c_38 ) (* (- 1) c_38 y ) ) 0) (>= (+ (* (- 1) 1) (* (- 1) m ) (* 1 y ) ) 0) (>= (+ (* 1 _tmp_ c_20 ) (* 1 c_19 ) (* 1 c_21 m ) (* 1 c_22 x ) (* 1 c_23 y ) ) 0) (>= (+ (* 1 _tmp_ c_25 ) (* 1 c_24 ) (* 1 c_26 m ) (* 1 c_27 x ) (* 1 c_28 y ) ) 0) ) (>= (+ (* 1 _tmp_ c_40 ) (* 1 c_39 ) (* 1 c_41 m ) (* (- 1) c_42 ) (* 1 c_42 x ) (* (- 1) c_43 ) (* 1 c_43 y ) ) 0) )))
(assert (forall ((_tmp_ Real) (x Real) (y Real) (m Real) (_r_0 Real) ) (=> (and (>= (+ (* (- 1) 1) (* (- 1) _tmp_ c_35 ) (* (- 1) c_34 ) (* (- 1) c_36 m ) (* 1 c_37 ) (* (- 1) c_37 x ) (* 1 c_38 ) (* (- 1) c_38 y ) ) 0) (>= (+ (* (- 1) 1) (* (- 1) m ) (* 1 y ) ) 0) (>= (+ (* 1 _tmp_ c_20 ) (* 1 c_19 ) (* 1 c_21 m ) (* 1 c_22 x ) (* 1 c_23 y ) ) 0) (>= (+ (* 1 _tmp_ c_25 ) (* 1 c_24 ) (* 1 c_26 m ) (* 1 c_27 x ) (* 1 c_28 y ) ) 0) ) (>= (+ (* 1 _tmp_ c_45 ) (* 1 c_44 ) (* 1 c_46 m ) (* (- 1) c_47 ) (* 1 c_47 x ) (* (- 1) c_48 ) (* 1 c_48 y ) ) 0) )))
(assert (forall ((_tmp_ Real) (x Real) (y Real) (m Real) (_r_0 Real) ) (=> (and (>= (+ (* (- 1) 1) (* (- 1) _tmp_ c_30 ) (* (- 1) c_29 ) (* (- 1) c_31 m ) (* 1 c_32 ) (* (- 1) c_32 x ) (* 1 c_33 ) (* (- 1) c_33 y ) ) 0) (>= (+ (* 1 _tmp_ c_10 ) (* 1 c_11 m ) (* 1 c_12 x ) (* 1 c_13 y ) (* 1 c_9 ) ) 0) (>= (+ (* 1 _tmp_ c_15 ) (* 1 c_14 ) (* 1 c_16 m ) (* 1 c_17 x ) (* 1 c_18 y ) ) 0) ) (>= (+ (* 1 _tmp_ c_40 ) (* 1 c_39 ) (* 1 c_41 m ) (* (- 1) c_42 ) (* 1 c_42 x ) (* (- 1) c_43 ) (* 1 c_43 y ) ) 0) )))
(assert (forall ((_tmp_ Real) (x Real) (y Real) (m Real) (_r_0 Real) ) (=> (and (>= (+ (* (- 1) 1) (* (- 1) _tmp_ c_30 ) (* (- 1) c_29 ) (* (- 1) c_31 m ) (* 1 c_32 ) (* (- 1) c_32 x ) (* 1 c_33 ) (* (- 1) c_33 y ) ) 0) (>= (+ (* 1 _tmp_ c_10 ) (* 1 c_11 m ) (* 1 c_12 x ) (* 1 c_13 y ) (* 1 c_9 ) ) 0) (>= (+ (* 1 _tmp_ c_15 ) (* 1 c_14 ) (* 1 c_16 m ) (* 1 c_17 x ) (* 1 c_18 y ) ) 0) ) (>= (+ (* 1 _tmp_ c_45 ) (* 1 c_44 ) (* 1 c_46 m ) (* (- 1) c_47 ) (* 1 c_47 x ) (* (- 1) c_48 ) (* 1 c_48 y ) ) 0) )))
(assert (forall ((_tmp_ Real) (x Real) (y Real) (m Real) (_r_0 Real) ) (=> (and (>= (+ (* (- 1) 1) (* (- 1) _tmp_ c_35 ) (* (- 1) c_34 ) (* (- 1) c_36 m ) (* 1 c_37 ) (* (- 1) c_37 x ) (* 1 c_38 ) (* (- 1) c_38 y ) ) 0) (>= (+ (* 1 _tmp_ c_10 ) (* 1 c_11 m ) (* 1 c_12 x ) (* 1 c_13 y ) (* 1 c_9 ) ) 0) (>= (+ (* 1 _tmp_ c_15 ) (* 1 c_14 ) (* 1 c_16 m ) (* 1 c_17 x ) (* 1 c_18 y ) ) 0) ) (>= (+ (* 1 _tmp_ c_40 ) (* 1 c_39 ) (* 1 c_41 m ) (* (- 1) c_42 ) (* 1 c_42 x ) (* (- 1) c_43 ) (* 1 c_43 y ) ) 0) )))
(assert (forall ((_tmp_ Real) (x Real) (y Real) (m Real) (_r_0 Real) ) (=> (and (>= (+ (* (- 1) 1) (* (- 1) _tmp_ c_35 ) (* (- 1) c_34 ) (* (- 1) c_36 m ) (* 1 c_37 ) (* (- 1) c_37 x ) (* 1 c_38 ) (* (- 1) c_38 y ) ) 0) (>= (+ (* 1 _tmp_ c_10 ) (* 1 c_11 m ) (* 1 c_12 x ) (* 1 c_13 y ) (* 1 c_9 ) ) 0) (>= (+ (* 1 _tmp_ c_15 ) (* 1 c_14 ) (* 1 c_16 m ) (* 1 c_17 x ) (* 1 c_18 y ) ) 0) ) (>= (+ (* 1 _tmp_ c_45 ) (* 1 c_44 ) (* 1 c_46 m ) (* (- 1) c_47 ) (* 1 c_47 x ) (* (- 1) c_48 ) (* 1 c_48 y ) ) 0) )))
(assert (forall ((_tmp_ Real) (x Real) (y Real) (m Real) (_r_0 Real) ) (=> (and (>= (+ (* (- 1) 1) (* (- 1) _tmp_ c_30 ) (* (- 1) c_29 ) (* (- 1) c_31 m ) (* 1 c_32 ) (* (- 1) c_32 x ) (* 1 c_33 ) (* (- 1) c_33 y ) ) 0) (>= (+ (* 1 _tmp_ c_20 ) (* 1 c_19 ) (* 1 c_21 m ) (* 1 c_22 x ) (* 1 c_23 y ) ) 0) (>= (+ (* 1 _tmp_ c_25 ) (* 1 c_24 ) (* 1 c_26 m ) (* 1 c_27 x ) (* 1 c_28 y ) ) 0) ) (>= (+ (* 1 _tmp_ c_40 ) (* 1 c_39 ) (* 1 c_41 m ) (* (- 1) c_42 ) (* 1 c_42 x ) (* (- 1) c_43 ) (* 1 c_43 y ) ) 0) )))
(assert (forall ((_tmp_ Real) (x Real) (y Real) (m Real) (_r_0 Real) ) (=> (and (>= (+ (* (- 1) 1) (* (- 1) _tmp_ c_30 ) (* (- 1) c_29 ) (* (- 1) c_31 m ) (* 1 c_32 ) (* (- 1) c_32 x ) (* 1 c_33 ) (* (- 1) c_33 y ) ) 0) (>= (+ (* 1 _tmp_ c_20 ) (* 1 c_19 ) (* 1 c_21 m ) (* 1 c_22 x ) (* 1 c_23 y ) ) 0) (>= (+ (* 1 _tmp_ c_25 ) (* 1 c_24 ) (* 1 c_26 m ) (* 1 c_27 x ) (* 1 c_28 y ) ) 0) ) (>= (+ (* 1 _tmp_ c_45 ) (* 1 c_44 ) (* 1 c_46 m ) (* (- 1) c_47 ) (* 1 c_47 x ) (* (- 1) c_48 ) (* 1 c_48 y ) ) 0) )))
(assert (forall ((_tmp_ Real) (x Real) (y Real) (m Real) (_r_0 Real) ) (=> (and (>= (+ (* (- 1) 1) (* (- 1) _tmp_ c_35 ) (* (- 1) c_34 ) (* (- 1) c_36 m ) (* 1 c_37 ) (* (- 1) c_37 x ) (* 1 c_38 ) (* (- 1) c_38 y ) ) 0) (>= (+ (* 1 _tmp_ c_20 ) (* 1 c_19 ) (* 1 c_21 m ) (* 1 c_22 x ) (* 1 c_23 y ) ) 0) (>= (+ (* 1 _tmp_ c_25 ) (* 1 c_24 ) (* 1 c_26 m ) (* 1 c_27 x ) (* 1 c_28 y ) ) 0) ) (>= (+ (* 1 _tmp_ c_40 ) (* 1 c_39 ) (* 1 c_41 m ) (* (- 1) c_42 ) (* 1 c_42 x ) (* (- 1) c_43 ) (* 1 c_43 y ) ) 0) )))
(assert (forall ((_tmp_ Real) (x Real) (y Real) (m Real) (_r_0 Real) ) (=> (and (>= (+ (* (- 1) 1) (* (- 1) _tmp_ c_35 ) (* (- 1) c_34 ) (* (- 1) c_36 m ) (* 1 c_37 ) (* (- 1) c_37 x ) (* 1 c_38 ) (* (- 1) c_38 y ) ) 0) (>= (+ (* 1 _tmp_ c_20 ) (* 1 c_19 ) (* 1 c_21 m ) (* 1 c_22 x ) (* 1 c_23 y ) ) 0) (>= (+ (* 1 _tmp_ c_25 ) (* 1 c_24 ) (* 1 c_26 m ) (* 1 c_27 x ) (* 1 c_28 y ) ) 0) ) (>= (+ (* 1 _tmp_ c_45 ) (* 1 c_44 ) (* 1 c_46 m ) (* (- 1) c_47 ) (* 1 c_47 x ) (* (- 1) c_48 ) (* 1 c_48 y ) ) 0) )))
(assert (forall ((_tmp_ Real) (x Real) (y Real) (m Real) (_r_0 Real) ) (=> (and (>= (+ (* (- 1) 1) (* (- 1) _r_0 c_10 ) (* (- 1) c_11 m ) (* (- 1) c_12 x ) (* (- 1) c_13 y ) (* (- 1) c_9 ) ) 0) (>= (* (- 1) _r_0 ) 0) (>= (+ (* 1 _r_0 ) (* (- 1) _tmp_ c_0 ) (* (- 1) c_1 x ) (* (- 1) c_2 y ) (* (- 1) c_3 m ) ) 0) (>= (+ (* (- 1) _r_0 ) (* 1 _tmp_ c_0 ) (* 1 c_1 x ) (* 1 c_2 y ) (* 1 c_3 m ) ) 0) (>= (* 1 x ) 0) (>= (* 1 y ) 0) (>= (+ (* 1 _tmp_ c_30 ) (* 1 c_29 ) (* 1 c_31 m ) (* 1 c_32 x ) (* 1 c_33 y ) ) 0) (>= (+ (* 1 _tmp_ c_35 ) (* 1 c_34 ) (* 1 c_36 m ) (* 1 c_37 x ) (* 1 c_38 y ) ) 0) ) (>= (+ (* 1 _r_0 c_20 ) (* 1 c_19 ) (* 1 c_21 m ) (* 1 c_22 x ) (* 1 c_23 y ) ) 0) )))
(assert (forall ((_tmp_ Real) (x Real) (y Real) (m Real) (_r_0 Real) ) (=> (and (>= (+ (* (- 1) 1) (* (- 1) _r_0 c_10 ) (* (- 1) c_11 m ) (* (- 1) c_12 x ) (* (- 1) c_13 y ) (* (- 1) c_9 ) ) 0) (>= (* (- 1) _r_0 ) 0) (>= (+ (* 1 _r_0 ) (* (- 1) _tmp_ c_0 ) (* (- 1) c_1 x ) (* (- 1) c_2 y ) (* (- 1) c_3 m ) ) 0) (>= (+ (* (- 1) _r_0 ) (* 1 _tmp_ c_0 ) (* 1 c_1 x ) (* 1 c_2 y ) (* 1 c_3 m ) ) 0) (>= (* 1 x ) 0) (>= (* 1 y ) 0) (>= (+ (* 1 _tmp_ c_30 ) (* 1 c_29 ) (* 1 c_31 m ) (* 1 c_32 x ) (* 1 c_33 y ) ) 0) (>= (+ (* 1 _tmp_ c_35 ) (* 1 c_34 ) (* 1 c_36 m ) (* 1 c_37 x ) (* 1 c_38 y ) ) 0) ) (>= (+ (* 1 _r_0 c_25 ) (* 1 c_24 ) (* 1 c_26 m ) (* 1 c_27 x ) (* 1 c_28 y ) ) 0) )))
(assert (forall ((_tmp_ Real) (x Real) (y Real) (m Real) (_r_0 Real) ) (=> (and (>= (+ (* (- 1) 1) (* (- 1) _r_0 c_15 ) (* (- 1) c_14 ) (* (- 1) c_16 m ) (* (- 1) c_17 x ) (* (- 1) c_18 y ) ) 0) (>= (* (- 1) _r_0 ) 0) (>= (+ (* 1 _r_0 ) (* (- 1) _tmp_ c_0 ) (* (- 1) c_1 x ) (* (- 1) c_2 y ) (* (- 1) c_3 m ) ) 0) (>= (+ (* (- 1) _r_0 ) (* 1 _tmp_ c_0 ) (* 1 c_1 x ) (* 1 c_2 y ) (* 1 c_3 m ) ) 0) (>= (* 1 x ) 0) (>= (* 1 y ) 0) (>= (+ (* 1 _tmp_ c_30 ) (* 1 c_29 ) (* 1 c_31 m ) (* 1 c_32 x ) (* 1 c_33 y ) ) 0) (>= (+ (* 1 _tmp_ c_35 ) (* 1 c_34 ) (* 1 c_36 m ) (* 1 c_37 x ) (* 1 c_38 y ) ) 0) ) (>= (+ (* 1 _r_0 c_20 ) (* 1 c_19 ) (* 1 c_21 m ) (* 1 c_22 x ) (* 1 c_23 y ) ) 0) )))
(assert (forall ((_tmp_ Real) (x Real) (y Real) (m Real) (_r_0 Real) ) (=> (and (>= (+ (* (- 1) 1) (* (- 1) _r_0 c_15 ) (* (- 1) c_14 ) (* (- 1) c_16 m ) (* (- 1) c_17 x ) (* (- 1) c_18 y ) ) 0) (>= (* (- 1) _r_0 ) 0) (>= (+ (* 1 _r_0 ) (* (- 1) _tmp_ c_0 ) (* (- 1) c_1 x ) (* (- 1) c_2 y ) (* (- 1) c_3 m ) ) 0) (>= (+ (* (- 1) _r_0 ) (* 1 _tmp_ c_0 ) (* 1 c_1 x ) (* 1 c_2 y ) (* 1 c_3 m ) ) 0) (>= (* 1 x ) 0) (>= (* 1 y ) 0) (>= (+ (* 1 _tmp_ c_30 ) (* 1 c_29 ) (* 1 c_31 m ) (* 1 c_32 x ) (* 1 c_33 y ) ) 0) (>= (+ (* 1 _tmp_ c_35 ) (* 1 c_34 ) (* 1 c_36 m ) (* 1 c_37 x ) (* 1 c_38 y ) ) 0) ) (>= (+ (* 1 _r_0 c_25 ) (* 1 c_24 ) (* 1 c_26 m ) (* 1 c_27 x ) (* 1 c_28 y ) ) 0) )))
(assert (forall ((_tmp_ Real) (x Real) (y Real) (m Real) (_r_0 Real) ) (=> (and (>= (+ (* (- 1) 1) (* (- 1) _r_0 c_10 ) (* (- 1) c_11 m ) (* (- 1) c_12 x ) (* (- 1) c_13 y ) (* (- 1) c_9 ) ) 0) (>= (* (- 1) _r_0 ) 0) (>= (+ (* 1 _r_0 ) (* (- 1) _tmp_ c_0 ) (* (- 1) c_1 x ) (* (- 1) c_2 y ) (* (- 1) c_3 m ) ) 0) (>= (+ (* (- 1) _r_0 ) (* 1 _tmp_ c_0 ) (* 1 c_1 x ) (* 1 c_2 y ) (* 1 c_3 m ) ) 0) (>= (* 1 x ) 0) (>= (* 1 y ) 0) (>= (+ (* 1 _tmp_ c_40 ) (* 1 c_39 ) (* 1 c_41 m ) (* 1 c_42 x ) (* 1 c_43 y ) ) 0) (>= (+ (* 1 _tmp_ c_45 ) (* 1 c_44 ) (* 1 c_46 m ) (* 1 c_47 x ) (* 1 c_48 y ) ) 0) ) (>= (+ (* 1 _r_0 c_20 ) (* 1 c_19 ) (* 1 c_21 m ) (* 1 c_22 x ) (* 1 c_23 y ) ) 0) )))
(assert (forall ((_tmp_ Real) (x Real) (y Real) (m Real) (_r_0 Real) ) (=> (and (>= (+ (* (- 1) 1) (* (- 1) _r_0 c_10 ) (* (- 1) c_11 m ) (* (- 1) c_12 x ) (* (- 1) c_13 y ) (* (- 1) c_9 ) ) 0) (>= (* (- 1) _r_0 ) 0) (>= (+ (* 1 _r_0 ) (* (- 1) _tmp_ c_0 ) (* (- 1) c_1 x ) (* (- 1) c_2 y ) (* (- 1) c_3 m ) ) 0) (>= (+ (* (- 1) _r_0 ) (* 1 _tmp_ c_0 ) (* 1 c_1 x ) (* 1 c_2 y ) (* 1 c_3 m ) ) 0) (>= (* 1 x ) 0) (>= (* 1 y ) 0) (>= (+ (* 1 _tmp_ c_40 ) (* 1 c_39 ) (* 1 c_41 m ) (* 1 c_42 x ) (* 1 c_43 y ) ) 0) (>= (+ (* 1 _tmp_ c_45 ) (* 1 c_44 ) (* 1 c_46 m ) (* 1 c_47 x ) (* 1 c_48 y ) ) 0) ) (>= (+ (* 1 _r_0 c_25 ) (* 1 c_24 ) (* 1 c_26 m ) (* 1 c_27 x ) (* 1 c_28 y ) ) 0) )))
(assert (forall ((_tmp_ Real) (x Real) (y Real) (m Real) (_r_0 Real) ) (=> (and (>= (+ (* (- 1) 1) (* (- 1) _r_0 c_15 ) (* (- 1) c_14 ) (* (- 1) c_16 m ) (* (- 1) c_17 x ) (* (- 1) c_18 y ) ) 0) (>= (* (- 1) _r_0 ) 0) (>= (+ (* 1 _r_0 ) (* (- 1) _tmp_ c_0 ) (* (- 1) c_1 x ) (* (- 1) c_2 y ) (* (- 1) c_3 m ) ) 0) (>= (+ (* (- 1) _r_0 ) (* 1 _tmp_ c_0 ) (* 1 c_1 x ) (* 1 c_2 y ) (* 1 c_3 m ) ) 0) (>= (* 1 x ) 0) (>= (* 1 y ) 0) (>= (+ (* 1 _tmp_ c_40 ) (* 1 c_39 ) (* 1 c_41 m ) (* 1 c_42 x ) (* 1 c_43 y ) ) 0) (>= (+ (* 1 _tmp_ c_45 ) (* 1 c_44 ) (* 1 c_46 m ) (* 1 c_47 x ) (* 1 c_48 y ) ) 0) ) (>= (+ (* 1 _r_0 c_20 ) (* 1 c_19 ) (* 1 c_21 m ) (* 1 c_22 x ) (* 1 c_23 y ) ) 0) )))
(assert (forall ((_tmp_ Real) (x Real) (y Real) (m Real) (_r_0 Real) ) (=> (and (>= (+ (* (- 1) 1) (* (- 1) _r_0 c_15 ) (* (- 1) c_14 ) (* (- 1) c_16 m ) (* (- 1) c_17 x ) (* (- 1) c_18 y ) ) 0) (>= (* (- 1) _r_0 ) 0) (>= (+ (* 1 _r_0 ) (* (- 1) _tmp_ c_0 ) (* (- 1) c_1 x ) (* (- 1) c_2 y ) (* (- 1) c_3 m ) ) 0) (>= (+ (* (- 1) _r_0 ) (* 1 _tmp_ c_0 ) (* 1 c_1 x ) (* 1 c_2 y ) (* 1 c_3 m ) ) 0) (>= (* 1 x ) 0) (>= (* 1 y ) 0) (>= (+ (* 1 _tmp_ c_40 ) (* 1 c_39 ) (* 1 c_41 m ) (* 1 c_42 x ) (* 1 c_43 y ) ) 0) (>= (+ (* 1 _tmp_ c_45 ) (* 1 c_44 ) (* 1 c_46 m ) (* 1 c_47 x ) (* 1 c_48 y ) ) 0) ) (>= (+ (* 1 _r_0 c_25 ) (* 1 c_24 ) (* 1 c_26 m ) (* 1 c_27 x ) (* 1 c_28 y ) ) 0) )))
(assert (forall ((_tmp_ Real) (x Real) (y Real) (m Real) (_r_0 Real) ) (=> (and (>= (+ (* (- 1) 1) (* (- 1) _r_0 c_30 ) (* (- 1) c_29 ) (* (- 1) c_31 m ) (* (- 1) c_32 x ) (* 1 c_33 ) (* (- 1) c_33 y ) ) 0) (>= (+ (* (- 1) 1) (* 1 _r_0 ) ) 0) (>= (+ (* 1 _r_0 ) (* (- 1) _tmp_ c_0 ) (* (- 1) c_1 x ) (* (- 1) c_2 y ) (* (- 1) c_3 m ) ) 0) (>= (+ (* (- 1) _r_0 ) (* 1 _tmp_ c_0 ) (* 1 c_1 x ) (* 1 c_2 y ) (* 1 c_3 m ) ) 0) (>= (* 1 x ) 0) (>= (* 1 y ) 0) (>= (+ (* 1 _tmp_ c_30 ) (* 1 c_29 ) (* 1 c_31 m ) (* 1 c_32 x ) (* 1 c_33 y ) ) 0) (>= (+ (* 1 _tmp_ c_35 ) (* 1 c_34 ) (* 1 c_36 m ) (* 1 c_37 x ) (* 1 c_38 y ) ) 0) ) (>= (+ (* 1 _r_0 c_40 ) (* 1 c_39 ) (* 1 c_41 m ) (* 1 c_42 x ) (* (- 1) c_43 ) (* 1 c_43 y ) ) 0) )))
(assert (forall ((_tmp_ Real) (x Real) (y Real) (m Real) (_r_0 Real) ) (=> (and (>= (+ (* (- 1) 1) (* (- 1) _r_0 c_30 ) (* (- 1) c_29 ) (* (- 1) c_31 m ) (* (- 1) c_32 x ) (* 1 c_33 ) (* (- 1) c_33 y ) ) 0) (>= (+ (* (- 1) 1) (* 1 _r_0 ) ) 0) (>= (+ (* 1 _r_0 ) (* (- 1) _tmp_ c_0 ) (* (- 1) c_1 x ) (* (- 1) c_2 y ) (* (- 1) c_3 m ) ) 0) (>= (+ (* (- 1) _r_0 ) (* 1 _tmp_ c_0 ) (* 1 c_1 x ) (* 1 c_2 y ) (* 1 c_3 m ) ) 0) (>= (* 1 x ) 0) (>= (* 1 y ) 0) (>= (+ (* 1 _tmp_ c_30 ) (* 1 c_29 ) (* 1 c_31 m ) (* 1 c_32 x ) (* 1 c_33 y ) ) 0) (>= (+ (* 1 _tmp_ c_35 ) (* 1 c_34 ) (* 1 c_36 m ) (* 1 c_37 x ) (* 1 c_38 y ) ) 0) ) (>= (+ (* 1 _r_0 c_45 ) (* 1 c_44 ) (* 1 c_46 m ) (* 1 c_47 x ) (* (- 1) c_48 ) (* 1 c_48 y ) ) 0) )))
(assert (forall ((_tmp_ Real) (x Real) (y Real) (m Real) (_r_0 Real) ) (=> (and (>= (+ (* (- 1) 1) (* (- 1) _r_0 c_35 ) (* (- 1) c_34 ) (* (- 1) c_36 m ) (* (- 1) c_37 x ) (* 1 c_38 ) (* (- 1) c_38 y ) ) 0) (>= (+ (* (- 1) 1) (* 1 _r_0 ) ) 0) (>= (+ (* 1 _r_0 ) (* (- 1) _tmp_ c_0 ) (* (- 1) c_1 x ) (* (- 1) c_2 y ) (* (- 1) c_3 m ) ) 0) (>= (+ (* (- 1) _r_0 ) (* 1 _tmp_ c_0 ) (* 1 c_1 x ) (* 1 c_2 y ) (* 1 c_3 m ) ) 0) (>= (* 1 x ) 0) (>= (* 1 y ) 0) (>= (+ (* 1 _tmp_ c_30 ) (* 1 c_29 ) (* 1 c_31 m ) (* 1 c_32 x ) (* 1 c_33 y ) ) 0) (>= (+ (* 1 _tmp_ c_35 ) (* 1 c_34 ) (* 1 c_36 m ) (* 1 c_37 x ) (* 1 c_38 y ) ) 0) ) (>= (+ (* 1 _r_0 c_40 ) (* 1 c_39 ) (* 1 c_41 m ) (* 1 c_42 x ) (* (- 1) c_43 ) (* 1 c_43 y ) ) 0) )))
(assert (forall ((_tmp_ Real) (x Real) (y Real) (m Real) (_r_0 Real) ) (=> (and (>= (+ (* (- 1) 1) (* (- 1) _r_0 c_35 ) (* (- 1) c_34 ) (* (- 1) c_36 m ) (* (- 1) c_37 x ) (* 1 c_38 ) (* (- 1) c_38 y ) ) 0) (>= (+ (* (- 1) 1) (* 1 _r_0 ) ) 0) (>= (+ (* 1 _r_0 ) (* (- 1) _tmp_ c_0 ) (* (- 1) c_1 x ) (* (- 1) c_2 y ) (* (- 1) c_3 m ) ) 0) (>= (+ (* (- 1) _r_0 ) (* 1 _tmp_ c_0 ) (* 1 c_1 x ) (* 1 c_2 y ) (* 1 c_3 m ) ) 0) (>= (* 1 x ) 0) (>= (* 1 y ) 0) (>= (+ (* 1 _tmp_ c_30 ) (* 1 c_29 ) (* 1 c_31 m ) (* 1 c_32 x ) (* 1 c_33 y ) ) 0) (>= (+ (* 1 _tmp_ c_35 ) (* 1 c_34 ) (* 1 c_36 m ) (* 1 c_37 x ) (* 1 c_38 y ) ) 0) ) (>= (+ (* 1 _r_0 c_45 ) (* 1 c_44 ) (* 1 c_46 m ) (* 1 c_47 x ) (* (- 1) c_48 ) (* 1 c_48 y ) ) 0) )))
(assert (forall ((_tmp_ Real) (x Real) (y Real) (m Real) (_r_0 Real) ) (=> (and (>= (+ (* (- 1) 1) (* (- 1) _r_0 c_30 ) (* (- 1) c_29 ) (* (- 1) c_31 m ) (* (- 1) c_32 x ) (* 1 c_33 ) (* (- 1) c_33 y ) ) 0) (>= (+ (* (- 1) 1) (* 1 _r_0 ) ) 0) (>= (+ (* 1 _r_0 ) (* (- 1) _tmp_ c_0 ) (* (- 1) c_1 x ) (* (- 1) c_2 y ) (* (- 1) c_3 m ) ) 0) (>= (+ (* (- 1) _r_0 ) (* 1 _tmp_ c_0 ) (* 1 c_1 x ) (* 1 c_2 y ) (* 1 c_3 m ) ) 0) (>= (* 1 x ) 0) (>= (* 1 y ) 0) (>= (+ (* 1 _tmp_ c_40 ) (* 1 c_39 ) (* 1 c_41 m ) (* 1 c_42 x ) (* 1 c_43 y ) ) 0) (>= (+ (* 1 _tmp_ c_45 ) (* 1 c_44 ) (* 1 c_46 m ) (* 1 c_47 x ) (* 1 c_48 y ) ) 0) ) (>= (+ (* 1 _r_0 c_40 ) (* 1 c_39 ) (* 1 c_41 m ) (* 1 c_42 x ) (* (- 1) c_43 ) (* 1 c_43 y ) ) 0) )))
(assert (forall ((_tmp_ Real) (x Real) (y Real) (m Real) (_r_0 Real) ) (=> (and (>= (+ (* (- 1) 1) (* (- 1) _r_0 c_30 ) (* (- 1) c_29 ) (* (- 1) c_31 m ) (* (- 1) c_32 x ) (* 1 c_33 ) (* (- 1) c_33 y ) ) 0) (>= (+ (* (- 1) 1) (* 1 _r_0 ) ) 0) (>= (+ (* 1 _r_0 ) (* (- 1) _tmp_ c_0 ) (* (- 1) c_1 x ) (* (- 1) c_2 y ) (* (- 1) c_3 m ) ) 0) (>= (+ (* (- 1) _r_0 ) (* 1 _tmp_ c_0 ) (* 1 c_1 x ) (* 1 c_2 y ) (* 1 c_3 m ) ) 0) (>= (* 1 x ) 0) (>= (* 1 y ) 0) (>= (+ (* 1 _tmp_ c_40 ) (* 1 c_39 ) (* 1 c_41 m ) (* 1 c_42 x ) (* 1 c_43 y ) ) 0) (>= (+ (* 1 _tmp_ c_45 ) (* 1 c_44 ) (* 1 c_46 m ) (* 1 c_47 x ) (* 1 c_48 y ) ) 0) ) (>= (+ (* 1 _r_0 c_45 ) (* 1 c_44 ) (* 1 c_46 m ) (* 1 c_47 x ) (* (- 1) c_48 ) (* 1 c_48 y ) ) 0) )))
(assert (forall ((_tmp_ Real) (x Real) (y Real) (m Real) (_r_0 Real) ) (=> (and (>= (+ (* (- 1) 1) (* (- 1) _r_0 c_35 ) (* (- 1) c_34 ) (* (- 1) c_36 m ) (* (- 1) c_37 x ) (* 1 c_38 ) (* (- 1) c_38 y ) ) 0) (>= (+ (* (- 1) 1) (* 1 _r_0 ) ) 0) (>= (+ (* 1 _r_0 ) (* (- 1) _tmp_ c_0 ) (* (- 1) c_1 x ) (* (- 1) c_2 y ) (* (- 1) c_3 m ) ) 0) (>= (+ (* (- 1) _r_0 ) (* 1 _tmp_ c_0 ) (* 1 c_1 x ) (* 1 c_2 y ) (* 1 c_3 m ) ) 0) (>= (* 1 x ) 0) (>= (* 1 y ) 0) (>= (+ (* 1 _tmp_ c_40 ) (* 1 c_39 ) (* 1 c_41 m ) (* 1 c_42 x ) (* 1 c_43 y ) ) 0) (>= (+ (* 1 _tmp_ c_45 ) (* 1 c_44 ) (* 1 c_46 m ) (* 1 c_47 x ) (* 1 c_48 y ) ) 0) ) (>= (+ (* 1 _r_0 c_40 ) (* 1 c_39 ) (* 1 c_41 m ) (* 1 c_42 x ) (* (- 1) c_43 ) (* 1 c_43 y ) ) 0) )))
(assert (forall ((_tmp_ Real) (x Real) (y Real) (m Real) (_r_0 Real) ) (=> (and (>= (+ (* (- 1) 1) (* (- 1) _r_0 c_35 ) (* (- 1) c_34 ) (* (- 1) c_36 m ) (* (- 1) c_37 x ) (* 1 c_38 ) (* (- 1) c_38 y ) ) 0) (>= (+ (* (- 1) 1) (* 1 _r_0 ) ) 0) (>= (+ (* 1 _r_0 ) (* (- 1) _tmp_ c_0 ) (* (- 1) c_1 x ) (* (- 1) c_2 y ) (* (- 1) c_3 m ) ) 0) (>= (+ (* (- 1) _r_0 ) (* 1 _tmp_ c_0 ) (* 1 c_1 x ) (* 1 c_2 y ) (* 1 c_3 m ) ) 0) (>= (* 1 x ) 0) (>= (* 1 y ) 0) (>= (+ (* 1 _tmp_ c_40 ) (* 1 c_39 ) (* 1 c_41 m ) (* 1 c_42 x ) (* 1 c_43 y ) ) 0) (>= (+ (* 1 _tmp_ c_45 ) (* 1 c_44 ) (* 1 c_46 m ) (* 1 c_47 x ) (* 1 c_48 y ) ) 0) ) (>= (+ (* 1 _r_0 c_45 ) (* 1 c_44 ) (* 1 c_46 m ) (* 1 c_47 x ) (* (- 1) c_48 ) (* 1 c_48 y ) ) 0) )))
(assert (forall ((_tmp_ Real) (x Real) (y Real) (m Real) (_r_0 Real) ) (=> (and (>= (+ (* (- 1) 1) (* (- 1) x ) ) 0) (>= (+ (* 1 _tmp_ c_30 ) (* 1 c_29 ) (* 1 c_31 m ) (* 1 c_32 x ) (* 1 c_33 y ) ) 0) (>= (+ (* 1 _tmp_ c_35 ) (* 1 c_34 ) (* 1 c_36 m ) (* 1 c_37 x ) (* 1 c_38 y ) ) 0) ) (>= (* 1 c_4 ) 0) )))
(assert (forall ((_tmp_ Real) (x Real) (y Real) (m Real) (_r_0 Real) ) (=> (and (>= (+ (* (- 1) 1) (* (- 1) x ) ) 0) (>= (+ (* 1 _tmp_ c_40 ) (* 1 c_39 ) (* 1 c_41 m ) (* 1 c_42 x ) (* 1 c_43 y ) ) 0) (>= (+ (* 1 _tmp_ c_45 ) (* 1 c_44 ) (* 1 c_46 m ) (* 1 c_47 x ) (* 1 c_48 y ) ) 0) ) (>= (* 1 c_4 ) 0) )))
(assert (forall ((_tmp_ Real) (x Real) (y Real) (m Real) (_r_0 Real) ) (=> (and (>= (+ (* (- 1) 1) (* (- 1) y ) ) 0) (>= (+ (* 1 _tmp_ c_30 ) (* 1 c_29 ) (* 1 c_31 m ) (* 1 c_32 x ) (* 1 c_33 y ) ) 0) (>= (+ (* 1 _tmp_ c_35 ) (* 1 c_34 ) (* 1 c_36 m ) (* 1 c_37 x ) (* 1 c_38 y ) ) 0) ) (>= (* 1 c_4 ) 0) )))
(assert (forall ((_tmp_ Real) (x Real) (y Real) (m Real) (_r_0 Real) ) (=> (and (>= (+ (* (- 1) 1) (* (- 1) y ) ) 0) (>= (+ (* 1 _tmp_ c_40 ) (* 1 c_39 ) (* 1 c_41 m ) (* 1 c_42 x ) (* 1 c_43 y ) ) 0) (>= (+ (* 1 _tmp_ c_45 ) (* 1 c_44 ) (* 1 c_46 m ) (* 1 c_47 x ) (* 1 c_48 y ) ) 0) ) (>= (* 1 c_4 ) 0) )))
(check-sat)
(get-model)

